11.62
12.02
11.80
11.89
11.90
11.67
11.70
11.81
11.48
11.75
11.62
11.67
11.60
11.61
11.63
11.80
11.80
11.57
11.57
11.60
11.43
11.57
11.96
11.67
11.91
11.61
11.80
11.41
11.81
11.77
11.88
11.69
11.69
11.70
11.54
11.76
11.57
11.78
11.65
11.77
11.57
11.56
11.60
11.83
11.72
11.63
11.54
11.59
12.11
11.62
11.69
11.69
11.59
11.48
11.61
11.62
11.88
11.67
11.65
11.86
11.65
11.69
11.68
11.57
11.57
11.75
11.70
11.63
11.77
11.99
11.58
12.52
11.64
11.44
11.53
11.58
11.60
12.02
11.71
11.56
11.76
11.57
